150
546
434
336
228
540
484
476
408
360
180
705
576
400
473
192
294
468
532
225
35
728
123
403
576
666
78
220
660
250
40
348
874
216
125
798
310
196
114
297
630
238
102
205
570
517
407
494
559
256
700
312
420
230
490
312
840
310
288
74
378
572
99
561
360
580
799
36
450
473
128
343
266
112
360
612
104
82
270
912
666
208
264
99
150
234
145
184
210
75
504
310
833
152
324
792
170
714
720
420
